sat
(
  (define-fun C3_VM1 () Int
    0)
  (define-fun C2_VM6 () Int
    1)
  (define-fun C2_VM2 () Int
    0)
  (define-fun PriceProv6 () Int
    116)
  (define-fun C3_VM6 () Int
    0)
  (define-fun MemProv1 () Int
    3750)
  (define-fun C2_VM3 () Int
    0)
  (define-fun C2_VM1 () Int
    0)
  (define-fun VM1Type () Int
    433)
  (define-fun VM2Type () Int
    341)
  (define-fun StorageProv7 () Int
    2000)
  (define-fun C4_VM2 () Int
    0)
  (define-fun C2_VM7 () Int
    0)
  (define-fun C1_VM2 () Int
    0)
  (define-fun C4_VM6 () Int
    0)
  (define-fun C3_VM8 () Int
    0)
  (define-fun MemProv5 () Int
    3750)
  (define-fun ProcProv5 () Int
    2)
  (define-fun C3_VM7 () Int
    0)
  (define-fun C4_VM1 () Int
    0)
  (define-fun MemProv3 () Int
    3750)
  (define-fun C3_VM5 () Int
    0)
  (define-fun StorageProv3 () Int
    2000)
  (define-fun StorageProv4 () Int
    2000)
  (define-fun C1_VM8 () Int
    0)
  (define-fun ProcProv6 () Int
    2)
  (define-fun C2_VM5 () Int
    1)
  (define-fun PriceProv3 () Int
    116)
  (define-fun C1_VM4 () Int
    1)
  (define-fun C4_VM4 () Int
    0)
  (define-fun VM6Type () Int
    433)
  (define-fun C1_VM7 () Int
    0)
  (define-fun ProcProv8 () Int
    4)
  (define-fun ProcProv7 () Int
    4)
  (define-fun PriceProv5 () Int
    116)
  (define-fun C3_VM4 () Int
    0)
  (define-fun C5_VM2 () Int
    0)
  (define-fun MemProv8 () Int
    7500)
  (define-fun C2_VM4 () Int
    0)
  (define-fun C3_VM2 () Int
    1)
  (define-fun C1_VM3 () Int
    1)
  (define-fun VM3Type () Int
    433)
  (define-fun PriceProv8 () Int
    210)
  (define-fun ProcProv3 () Int
    2)
  (define-fun StorageProv6 () Int
    2000)
  (define-fun MemProv6 () Int
    3750)
  (define-fun C5_VM1 () Int
    0)
  (define-fun ProcProv4 () Int
    2)
  (define-fun C4_VM8 () Int
    0)
  (define-fun VM7Type () Int
    341)
  (define-fun C5_VM8 () Int
    1)
  (define-fun MemProv2 () Int
    7500)
  (define-fun StorageProv1 () Int
    2000)
  (define-fun PriceProv7 () Int
    210)
  (define-fun C5_VM3 () Int
    0)
  (define-fun C1_VM1 () Int
    1)
  (define-fun C3_VM3 () Int
    0)
  (define-fun C4_VM3 () Int
    0)
  (define-fun MemProv4 () Int
    3750)
  (define-fun StorageProv8 () Int
    2000)
  (define-fun C5_VM4 () Int
    0)
  (define-fun VM8Type () Int
    341)
  (define-fun ProcProv2 () Int
    4)
  (define-fun C4_VM7 () Int
    0)
  (define-fun C4_VM5 () Int
    0)
  (define-fun PriceProv1 () Int
    116)
  (define-fun ProcProv1 () Int
    2)
  (define-fun VM4Type () Int
    433)
  (define-fun PriceProv4 () Int
    116)
  (define-fun StorageProv2 () Int
    2000)
  (define-fun C1_VM5 () Int
    0)
  (define-fun C5_VM5 () Int
    0)
  (define-fun VM5Type () Int
    433)
  (define-fun C1_VM6 () Int
    0)
  (define-fun C2_VM8 () Int
    0)
  (define-fun MemProv7 () Int
    7500)
  (define-fun C5_VM7 () Int
    1)
  (define-fun C5_VM6 () Int
    0)
  (define-fun PriceProv2 () Int
    210)
  (define-fun StorageProv5 () Int
    2000)
)
(objectives
 ( 32)
 ((+ 0
   PriceProv1
   PriceProv2
   PriceProv3
   PriceProv4
   PriceProv5
   PriceProv6
   PriceProv7
   PriceProv8) 1210)
)
(:added-eqs                   369436
 :arith-eq-adapter            326820
 :arith-bound-propagations-lp 636
 :arith-conflicts             47
 :arith-diseq                 616784
 :arith-fixed-eqs             3324
 :arith-lower                 683619
 :arith-make-feasible         254384
 :arith-max-columns           591
 :arith-max-rows              26
 :arith-upper                 568558
 :binary-propagations         1867299
 :bv-bit2core                 15020
 :bv-dynamic-diseqs           1158910
 :bv->core-eq                 1511
 :conflicts                   3686
 :decisions                   833983
 :del-clause                  1517370
 :final-checks                33
 :max-memory                  99.54
 :maxsat-cores                8
 :memory                      95.94
 :minimized-lits              254
 :mk-bool-var                 654652
 :mk-clause                   1521795
 :mk-clause-binary            19426
 :num-allocs                  2443039714
 :num-checks                  45
 :pb-conflicts                4
 :pb-predicates               7
 :pb-propagations             2429
 :pb-resolves                 1
 :propagations                2502147
 :restarts                    24
 :rlimit-count                36565738
 :time                        5.61
 :total-time                  5.64)
